(set-info :smt-lib-version 2.6)
(set-logic LIA)
(set-info
  :source |
 Generated by PSyCO 0.1
 More info in N. P. Lopes and J. Monteiro. Weakest Precondition Synthesis for
 Compiler Optimizations, VMCAI'14.
|)
(set-info :category "industrial")
(set-info :status unsat)
(declare-fun W_S2_V5 () Bool)
(declare-fun W_S2_V2 () Bool)
(declare-fun W_S2_V3 () Bool)
(declare-fun W_S2_V1 () Bool)
(declare-fun W_S1_V4 () Bool)
(declare-fun W_S1_V5 () Bool)
(declare-fun W_S1_V2 () Bool)
(declare-fun W_S1_V1 () Bool)
(declare-fun R_E1_V1 () Bool)
(declare-fun R_E1_V4 () Bool)
(declare-fun R_E1_V5 () Bool)
(declare-fun R_E1_V2 () Bool)
(declare-fun R_E1_V3 () Bool)
(declare-fun DISJ_W_S2_R_E1 () Bool)
(declare-fun R_S2_V4 () Bool)
(declare-fun R_S2_V5 () Bool)
(declare-fun R_S2_V2 () Bool)
(declare-fun R_S2_V3 () Bool)
(declare-fun R_S2_V1 () Bool)
(declare-fun DISJ_W_S2_R_S2 () Bool)
(declare-fun R_S1_V4 () Bool)
(declare-fun R_S1_V5 () Bool)
(declare-fun R_S1_V2 () Bool)
(declare-fun R_S1_V3 () Bool)
(declare-fun R_S1_V1 () Bool)
(declare-fun DISJ_W_S2_R_S1 () Bool)
(declare-fun DISJ_W_S1_W_S2 () Bool)
(declare-fun DISJ_W_S1_R_E1 () Bool)
(declare-fun DISJ_W_S1_R_S2 () Bool)
(declare-fun DISJ_W_S1_R_S1 () Bool)
(declare-fun W_S2_V4 () Bool)
(declare-fun W_S1_V3 () Bool)
(assert
 (let
 (($x2544
   (forall
    ((V1_0 Int) (V2_0 Int) 
     (MW_S1_V1 Bool) (MW_S1_V2 Bool) 
     (MW_S1_V5 Bool) (MW_S1_V4 Bool) 
     (MW_S2_V1 Bool) (MW_S2_V3 Bool) 
     (MW_S2_V2 Bool) (MW_S2_V5 Bool) 
     (E1_!336 Int) (E1_!337 Int) 
     (E1_!338 Int))
    (let (($x2467 (= E1_!337 E1_!338)))
    (let (($x2540 (>= E1_!338 V2_0)))
    (let (($x2539 (>= E1_!337 V2_0)))
    (let (($x2538 (>= E1_!336 V2_0)))
    (let (($x2541 (and $x2538 $x2539 $x2540)))
    (let (($x2542 (not $x2541)))
    (let (($x2474 (not MW_S2_V5)))
    (let (($x2535 (or $x2474 W_S2_V5)))
    (let (($x2476 (not MW_S2_V2)))
    (let (($x2534 (or $x2476 W_S2_V2)))
    (let (($x2478 (not MW_S2_V3)))
    (let (($x2533 (or $x2478 W_S2_V3)))
    (let (($x2480 (not MW_S2_V1)))
    (let (($x2532 (or $x2480 W_S2_V1)))
    (let (($x2482 (not MW_S1_V4)))
    (let (($x2531 (or $x2482 W_S1_V4)))
    (let (($x2484 (not MW_S1_V5)))
    (let (($x2530 (or $x2484 W_S1_V5)))
    (let (($x2486 (not MW_S1_V2)))
    (let (($x2529 (or $x2486 W_S1_V2)))
    (let (($x2488 (not MW_S1_V1)))
    (let (($x2528 (or $x2488 W_S1_V1)))
    (let (($x2495 (= E1_!338 E1_!337)))
    (let (($x2523 (= V1_0 E1_!336)))
    (let (($x153 (not R_E1_V1)))
    (let (($x2524 (or $x153 $x2523)))
    (let (($x2525 (not $x2524)))
    (let (($x2527 (or $x2525 $x2495)))
    (let (($x2500 (= E1_!338 E1_!336)))
    (let (($x2501 (= E1_!336 E1_!337)))
    (let (($x2526 (or $x2525 $x2501)))
    (let
    (($x2536
      (and $x2526 $x2500 $x2527 $x2528 $x2529 $x2530 $x2531 $x2532 $x2533
      $x2534 $x2535)))
    (let (($x2537 (not $x2536))) (or $x2537 $x2542 $x2467)))))))))))))))))))))))))))))))))))))
 (let (($x90 (and W_S2_V5 R_E1_V5)))
 (let (($x89 (and W_S2_V2 R_E1_V2)))
 (let (($x88 (and W_S2_V3 R_E1_V3)))
 (let (($x87 (and W_S2_V1 R_E1_V1)))
 (let (($x116 (or $x87 $x88 $x89 $x90 R_E1_V4)))
 (let (($x117 (not $x116)))
 (let (($x118 (= DISJ_W_S2_R_E1 $x117)))
 (let (($x81 (and W_S2_V5 R_S2_V5)))
 (let (($x80 (and W_S2_V2 R_S2_V2)))
 (let (($x79 (and W_S2_V3 R_S2_V3)))
 (let (($x78 (and W_S2_V1 R_S2_V1)))
 (let (($x113 (or $x78 $x79 $x80 $x81 R_S2_V4)))
 (let (($x114 (not $x113)))
 (let (($x115 (= DISJ_W_S2_R_S2 $x114)))
 (let (($x72 (and W_S2_V5 R_S1_V5)))
 (let (($x71 (and W_S2_V2 R_S1_V2)))
 (let (($x70 (and W_S2_V3 R_S1_V3)))
 (let (($x69 (and W_S2_V1 R_S1_V1)))
 (let (($x110 (or $x69 $x70 $x71 $x72 R_S1_V4)))
 (let (($x111 (not $x110)))
 (let (($x112 (= DISJ_W_S2_R_S1 $x111)))
 (let (($x63 (and W_S1_V5 W_S2_V5)))
 (let (($x61 (and W_S1_V2 W_S2_V2)))
 (let (($x57 (and W_S1_V1 W_S2_V1)))
 (let (($x107 (or $x57 W_S2_V3 $x61 $x63 W_S1_V4)))
 (let (($x108 (not $x107)))
 (let (($x109 (= DISJ_W_S1_W_S2 $x108)))
 (let (($x51 (and W_S1_V4 R_E1_V4)))
 (let (($x49 (and W_S1_V5 R_E1_V5)))
 (let (($x47 (and W_S1_V2 R_E1_V2)))
 (let (($x43 (and W_S1_V1 R_E1_V1)))
 (let (($x104 (or $x43 R_E1_V3 $x47 $x49 $x51)))
 (let (($x105 (not $x104)))
 (let (($x106 (= DISJ_W_S1_R_E1 $x105)))
 (let (($x37 (and W_S1_V4 R_S2_V4)))
 (let (($x35 (and W_S1_V5 R_S2_V5)))
 (let (($x33 (and W_S1_V2 R_S2_V2)))
 (let (($x29 (and W_S1_V1 R_S2_V1)))
 (let (($x101 (or $x29 R_S2_V3 $x33 $x35 $x37)))
 (let (($x102 (not $x101)))
 (let (($x103 (= DISJ_W_S1_R_S2 $x102)))
 (let (($x23 (and W_S1_V4 R_S1_V4)))
 (let (($x20 (and W_S1_V5 R_S1_V5)))
 (let (($x17 (and W_S1_V2 R_S1_V2)))
 (let (($x12 (and W_S1_V1 R_S1_V1)))
 (let (($x98 (or $x12 R_S1_V3 $x17 $x20 $x23)))
 (let (($x99 (not $x98)))
 (let (($x100 (= DISJ_W_S1_R_S1 $x99)))
 (and W_S1_V3 W_S2_V4 $x100 $x103 $x106 $x109 $x112 $x115 $x118 $x2544)))))))))))))))))))))))))))))))))))))))))))))))))))
(assert R_E1_V1)
(check-sat)
(exit)

